width = 36;
num_plates = 23;
plates_x = [3, 3, 3, 3, 3, 3, 3, 3, 3, 3, 3, 3, 3, 3, 3, 4, 4, 4, 5, 5, 5, 5, 12];
plates_y = [3, 4, 5, 6, 7, 8, 9, 10, 11, 12, 14, 15, 16, 24, 36, 3, 11, 22, 3, 4, 14, 15, 36];